n_machines = 10;
n_resources = 17;
n_jobs = 96;
horizon = 51636;
LB = 6352;
n_jobs_per_resource = [8, 6, 5, 7, 5, 8, 4, 2, 4, 3, 4, 8, 6, 6, 9, 8, 3];
duration = [988, 876, 309, 862, 720, 971, 914, 712, 118, 738, 165, 278, 642, 776, 978, 396, 406, 887, 270, 959, 160, 165, 92, 282, 696, 964, 656, 416, 984, 664, 120, 850, 60, 533, 571, 38, 192, 675, 97, 893, 313, 903, 82, 527, 611, 239, 412, 869, 970, 217, 988, 75, 893, 968, 765, 712, 276, 628, 702, 227, 898, 214, 997, 228, 501, 37, 921, 860, 642, 815, 534, 242, 854, 408, 730, 282, 392, 192, 508, 572, 978, 156, 532, 591, 446, 587, 253, 184, 388, 339, 439, 147, 777, 368, 546, 628]